NAME 
ROWS
 N  OBJ
 L  R0      
 L  R1      
 L  R2      
 E  R3      
 E  R4      
 E  R5      
 E  R6      
 E  R7      
 E  R8      
 E  R9      
 E  R10     
 E  R11     
 E  R12     
COLUMNS
    MARKER    'MARKER'                 'INTORG'
    I0(6)     OBJ       -68
    I0(6)     R0        76
    I0(6)     R1        62
    I0(6)     R2        -186
    I0(6)     R3        14
    I0(6)     R4        9
    I0(6)     R12       1
    I1(5)     OBJ       -105
    I1(5)     R0        -63
    I1(5)     R1        92
    I1(5)     R2        18
    I1(5)     R6        2
    I1(5)     R12       1
    I2(7)     OBJ       117
    I2(7)     R0        177
    I2(7)     R1        110
    I2(7)     R2        -27
    I2(7)     R4        6
    I2(7)     R5        17
    I2(7)     R7        8
    I2(7)     R12       1
    I3(8)     OBJ       166
    I3(8)     R0        80
    I3(8)     R1        197
    I3(8)     R2        96
    I3(8)     R3        19
    I3(8)     R4        12
    I3(8)     R5        6
    I3(8)     R7        5
    I3(8)     R12       1
    I4(9)     OBJ       -157
    I4(9)     R0        190
    I4(9)     R1        -56
    I4(9)     R2        72
    I4(9)     R4        8
    I4(9)     R5        11
    I4(9)     R6        19
    I4(9)     R7        -1
    I4(9)     R8        14
    I4(9)     R12       1
    I5(7)     OBJ       -185
    I5(7)     R0        108
    I5(7)     R1        14
    I5(7)     R2        130
    I5(7)     R3        3
    I5(7)     R4        4
    I5(7)     R6        18
    I5(7)     R12       1
    MARKER    'MARKER'                 'INTEND'
    C6(8)     OBJ       3
    C6(8)     R0        7
    C6(8)     R1        -7
    C6(8)     R2        -2
    C6(8)     R3        11
    C6(8)     R6        11
    C6(8)     R9        12
    C6(8)     R10       7
    C6(8)     R11       -1
    C7(6)     OBJ       5
    C7(6)     R1        3
    C7(6)     R2        2
    C7(6)     R6        11
    C7(6)     R7        6
    C7(6)     R10       18
    C7(6)     R11       18
    C8(7)     OBJ       8
    C8(7)     R0        -9
    C8(7)     R1        -10
    C8(7)     R2        4
    C8(7)     R3        3
    C8(7)     R6        1
    C8(7)     R7        10
    C8(7)     R10       9
    C9(6)     OBJ       1
    C9(6)     R0        -2
    C9(6)     R1        -2
    C9(6)     R2        -2
    C9(6)     R4        4
    C9(6)     R6        6
    C9(6)     R8        19
    C10(1)    R3        1
    C11(1)    R4        1
    C12(1)    R5        1
    C13(1)    R6        1
    C14(1)    R7        1
    C15(1)    R8        1
    C16(1)    R9        1
    C17(1)    R10       1
    C18(1)    R11       1
    C19(1)    R12       1
RHS
    RHS1      R0        216
    RHS1      R1        28
    RHS1      R2        260
    RHS1      R3        98
    RHS1      R4        99
    RHS1      R5        85
    RHS1      R6        80
    RHS1      R7        62
    RHS1      R8        83
    RHS1      R9        75
    RHS1      R10       53
    RHS1      R11       88
    RHS1      R12       2
BOUNDS
 UP BND1      I0(6)     2
 UP BND1      I1(5)     2
 UP BND1      I2(7)     2
 UP BND1      I3(8)     2
 UP BND1      I4(9)     2
 UP BND1      I5(7)     2
ENDATA
